Mo S 
 1.0000000000000000
    38.1112302010783282    0.0000000000000000    0.0000000000000000
     0.0000000000000000   38.1112302010783282    0.0000000000000000
     0.0000000000000000    0.0000000000000000    3.2124756808418016
 Mo  S  
  18  36
Direct
  0.3751180039000001  0.3322543676000000  0.5000000000000000
  0.3131172697000000  0.5938560336000002  0.5000000000000000
  0.3252769260000000  0.3850828256000001  0.0000000000000000
  0.4878403443000002  0.7087732094000000  0.0000000000000000
  0.7077129769000001  0.4757218351000001  0.5000000000000000
  0.7034899743000000  0.5482280099000000  0.0000000000000000
  0.6868827277000000  0.4061439650000001  0.0000000000000000
  0.6747230734000000  0.6149171724000000  0.5000000000000000
  0.3564883326000001  0.6521134818000001  0.0000000000000000
  0.2922870231000000  0.5242781649000000  0.0000000000000000
  0.6435116653999999  0.3478865188000000  0.5000000000000000
  0.2965100276000001  0.4517719925000001  0.5000000000000000
  0.4400216930000001  0.2996585113000000  0.0000000000000000
  0.5121596544000000  0.2912267926000000  0.5000000000000000
  0.4171690191000000  0.6920237973000000  0.5000000000000000
  0.5828309809000001  0.3079762027000001  0.0000000000000000
  0.6248819962000001  0.6677456331000000  0.0000000000000000
  0.5599783056000001  0.7003414913000000  0.5000000000000000
  0.4834371986000002  0.2529624201000000  0.0000000000000000
  0.3285194651000000  0.3214045953000000  0.0000000000000000
  0.4501394834000000  0.6573526278000000  0.0000000000000000
  0.3363797245000000  0.4782209744000000  0.0000000000000000
  0.3387983691000001  0.5354958397000000  0.5000000000000000
  0.3993286728000001  0.6308098025000000  0.5000000000000000
  0.4370510517000001  0.3474111719000000  0.5000000000000000
  0.3538951429000001  0.6998881286000000  0.5000000000000000
  0.4310721093000000  0.7378042036000000  0.0000000000000000
  0.3606603098000000  0.5884893848000001  0.0000000000000000
  0.3886588860000001  0.3781432131000001  0.0000000000000000
  0.3999442314000000  0.2735254177000001  0.5000000000000000
  0.3536961001000000  0.4235729821000001  0.5000000000000000
  0.5069642099000000  0.6649164044000000  0.5000000000000000
  0.7461606257000000  0.5265864537000000  0.5000000000000000
  0.2777777794000000  0.3908250158999999  0.5000000000000000
  0.5165627991000000  0.7470375825000000  0.5000000000000000
  0.5498605152000001  0.3426473735000001  0.5000000000000000
  0.5629489483000000  0.6525888286000000  0.0000000000000000
  0.5689278886000000  0.2621957985000000  0.5000000000000000
  0.6000557687000000  0.7264745831000000  0.0000000000000000
  0.6006713272000000  0.3691901975000002  0.0000000000000000
  0.6113411140000000  0.6218567853000000  0.5000000000000000
  0.6393396885000000  0.4115106152000001  0.5000000000000000
  0.2943405783000000  0.6378625959999999  0.0000000000000000
  0.6461048571000001  0.3001118714000000  0.0000000000000000
  0.6612016291000000  0.4645041588000001  0.0000000000000000
  0.6636202755000000  0.5217790256000000  0.5000000000000000
  0.6714805348000000  0.6785954022000000  0.5000000000000000
  0.7056594192000001  0.3621374042000000  0.5000000000000000
  0.7222222222000001  0.6091749872000001  0.0000000000000000
  0.7404084234000001  0.4407912006000000  0.0000000000000000
  0.2538393743000000  0.4734135463000000  0.0000000000000000
  0.2595915740000002  0.5592087970999999  0.5000000000000000
  0.6463039010000000  0.5764270201000000  0.0000000000000000
  0.4930357886000000  0.3350835973000000  0.0000000000000000
