Mo S  W 
 1.0000000000000000
    49.9783788625620033    0.0000000000000000    0.0000000000000000
     0.0000000000000000   49.9783788625620033    0.0000000000000000
     0.0000000000000000    0.0000000000000000    5.5456846671050002
 Mo  S   W  
  40 120  20
Cartesian
 24.8913875484630651 14.2470165176223649  4.0643446174227869
 16.2118421229633611 18.7322345138103721  4.0899952380928006
 15.4647724352806382 29.9579715309252848  1.2914645268214540
 15.3378759869628514 20.1888480288030152  1.3171446752937881
 14.7425827689552005 21.7626887718237398  4.0642905636384894
 14.3595522355999830 26.7785366782000267  1.3171432543559463
 14.3632033989269150 23.4106963628819109  1.2914478317208882
 14.2104323140373872 25.0864094224919256  4.0899865317548585
 25.0869913149735275 35.7313623447065680  4.0643446172693594
 26.5721502603445288 14.3268369557026283  1.3171907505243174
 26.7715716085489142 35.5829097072904901  1.2914992582783207
 35.7679465489267798 24.8919694432758476  4.0899865318414026
 35.6151754635463860 26.5676825027169699  1.2914478317734381
 28.2275339622821662 14.7079184264130287  4.0900293520289193
 28.4124725702369325 35.2103751224642565  4.0900260235645884
 35.6188266275308223 23.1998421876851708  1.3171432542055661
 35.2357960929724499 28.2156900933275381  4.0642905635611255
 35.1753532448425332 21.5766725668991590  4.0642988751911062
 29.7740204796469179 15.3710343842650250  1.2914844289248899
 29.9756948863742387 34.5456549158074324  1.3171667154542612
 34.6405028745636443 29.7895308358216901  1.3171446750835263
 34.5136064287582087 20.0204073346632327  1.2914645269450251
 31.2241364483800758 16.2411067783566985  4.0643200640477710
 31.3823796727063211 33.6223023468673929  4.0643080476124345
 33.7665367384348230 31.2461443502372411  4.0899952379603963
 33.6522428332475627 18.5749259179492938  4.0900081841073836
 32.5369940543625020 17.2936107060948494  1.3171666309840482
 32.6579822662421790 32.5120305552173150  1.2914619855735074
 16.3261360310739505 31.4034529472970405  4.0900081838749367
 17.3203965951169501 17.4663483082379472  1.2914619856612624
 14.8030256187219891 28.4017062989463476  4.0642988752422786
 21.7508449019593648 35.2704604367720336  4.0900293517749402
 18.7542424160345504 33.7372720861475983  4.0643200640492578
 21.5659062920695135 14.7680037395715082  4.0900260238215944
 23.2068072542961055 14.3954691548042657  1.2914992584454761
 18.5959991887978155 16.3560765159437445  4.0643080477494999
 20.2043583847456460 34.6073444795522889  1.2914844288169098
 17.4413848099168831 32.6847681588899519  1.3171666309826915
 23.4062286035155758 35.6515419069877666  1.3171907503077520
 20.0026839754208723 15.4327239464899879  1.3171667157138027
 35.8375914378483387 19.3511108577884272  4.9395607562212565
 35.9475120396819605 30.4316105826935264  4.9410177484176669
 20.8785117660058219 33.2455758256424403  5.0021811381288357
 21.1102266993157635 13.3849282319864660  2.1682160740679208
 21.3065394362128302 36.6572339112534777  2.1682209181155492
 19.6385598966824908 32.5015983837592231  2.2293348357456191
 19.4979198956086783 17.5789627255497365  2.2293231041449637
 20.7244175439350755 16.7765248578144046  5.0633408567246372
 17.4432565449601356 19.6324211451051092  2.2904892163003283
 22.0330265172779356 16.2200804438627166  2.2905216555141883
 34.8268148530810251 17.7141620096130197  2.1681957859071597
 22.2264460091586926 33.8211421172069819  2.2905222397984777
 22.9793935384488215 12.9294593450726278  4.9395971148519564
 34.2425940787931253 24.8875099240485973  2.2904809226571037
 23.1994553991498123 37.0929952333694146  4.9410656769459873
 34.1117319088475170 26.3473301519006888  5.0021459485661284
 34.1177692993802495 23.4709975060489953  5.0633189759101196
 33.7036588560775670 33.5643879305214412  4.9395567901928814
 33.5515367025730029 16.2489885129545968  4.9410377801797036
 23.4618316505386311 15.8934221421136090  5.0021998024568042
 23.6122002030329874 34.1401566125877594  5.0633689426745372
 24.8589108604720366 12.7638314767087309  2.1667564420131251
 34.9481386162239005 32.0972339893968339  2.1681828069828866
 36.5759112481320798 21.0874600746560397  2.1667106920332468
 37.0536262024651180 22.9510592705954295  4.9410168340701031
 37.0797076202838412 26.8044231520078675  4.9395442231606710
 16.8106032836552579 29.2525407499140790  5.0021612775143254
 16.7116392086381964 20.8517762546581480  5.0633201626672069
 16.2447653394892981 27.9218206079985585  2.2293125185831872
 16.1910471802839702 22.2218827649779698  2.2293053150593485
 17.5627933117146604 30.5104838480273166  2.2905012898227324
 17.6979328692827949 15.1752423480872221  2.1667185065822445
 16.4268421619776532 33.7293903522609568  4.9410377801139242
 16.2747200051419370 16.4139909332930749  4.9395567901940343
 15.8606095636088043 26.5073813594686634  5.0633189761628161
 15.8666469535566428 23.6310487131360212  5.0021459483175166
 15.7357847841141147 25.0908689413095409  2.2904809224231477
 17.9087241724495740 34.9562831569224883  2.1667301668359675
 18.4071868106641041 18.5283195191171863  5.0021599925869404
 15.1515640112754859 32.2642168559748441  2.1681957858297518
 15.0302402450357118 17.8811448750588902  2.1681828070446185
 33.7873316817117697 27.7564960996843872  2.2293053150188817
 18.4963836922684841 31.5830991591995769  5.0633419559500954
 19.3226961360546383 14.1450249186259978  4.9410427899913385
 14.1407874263302364 30.6272680082576088  4.9395607561754034
 14.0308668218264145 19.5467682824030931  4.9410177484807587
 13.4024676156444524 28.8909187916170822  2.1667106920270367
 13.3219530388308787 21.3352476940223106  2.1667022840111936
 12.9247526608594843 27.0273195955866541  4.9410168340836735
 12.8986712421444913 23.1739557141063521  4.9395442231169779
 12.7542378337197722 25.0923885833098659  2.1681738038064462
 37.2241410291707524 24.8859902828417390  2.1681738037974907
 19.5266398380092063 35.9270407727229042  4.9395820345882893
 36.6564258230779174 28.6431311717158685  2.1667022840273380
 33.7336135240004751 22.0565582574291383  2.2293125184097953
 24.7207907775886362 28.9054247453522137  4.0067970255831540
 33.1677755801669747 20.7258381153283331  5.0021612777381366
 21.6600033594938779 27.0689136921856104  1.2339226555404867
 21.3475806973081532 23.5237540798116456  4.0067655420808306
 21.1817029543640984 25.9441101406999444  4.0067640011304695
 21.0733693282622525 24.7148739640543127  1.2339320587623781
 33.2667396529288197 29.1266026094445785  5.0633201624739241
 20.6155075652941839 30.2292660182036030  3.7866517914388789
 19.7664984316124581 20.5947778010222677  1.0137982880505290
 19.1959592027315331 28.5983291941047781  1.0138004870023822
 18.6540483638751695 22.4488364585329521  3.7866355272054122
 18.3707746575847395 26.6577288480687358  3.7866366732066443
 18.1809748792619210 24.5038608408223908  1.0137910797512162
 31.7974039831712147 25.4745180198609411  1.0137910796445502
 31.6076042044942263 23.3206500121979907  3.7866366736564605
 31.3243304986127633 27.5295424027659230  3.7866355275362755
 21.9824875719312658 22.4656198619643028  1.2339218784123938
 30.7824196585524739 21.3800496665659523  1.0138004866336388
 29.3628712961425968 19.7491128430405745  3.7866517915702325
 28.6212622840390978 30.7680717890960409  3.7866525675301532
 28.9050095345187756 25.2635048971557090  1.2339320593035132
 28.7966759080507337 24.0342687205102727  4.0067640012726367
 28.6307981655225703 26.4546247813304767  4.0067655424246285
 28.3183755021690544 22.9094651693412743  1.2339226554461391
 27.9958912903461368 27.5127589990318242  1.2339218785177859
 27.5546225535571061 18.6641554424607072  1.0138184444421812
 26.6314819359845458 31.6141647812030726  1.0138174203404708
 27.5082216712617651 21.9786545424845983  4.0067785618026752
 27.0739413123884489 28.3152317155388751  4.0067744479194518
 26.4601350449758819 21.3497909805371755  1.2339542877249727
 25.9383464502191821 28.7981209605647237  1.2339538515095783
 25.4475271569197083 18.1790841427017220  3.7866654811556115
 30.2118804304175619 29.3836010603619719  1.0137982880365264
 22.4237563083985663 31.3142234191777042  1.0138184446861280
 21.3571165777899807 19.2103070720675007  3.7866525675053975
 22.4701571902020909 27.9997243193176892  4.0067785623034284
 27.7519328547207138 16.1572367456399739  2.2905222400173919
 27.9453523448910950 33.7582984180023971  2.2905216553405374
 23.3468969261996655 18.3642140797913704  1.0138174203719374
 28.6718394283500082 13.3211449522292291  2.1682209182217207
 28.8681521630936189 36.5934506302738001  2.1682160739738578
 29.0998670980501224 16.7328030378813537  5.0021811381657306
 29.2539613179006182 33.2018540042223762  5.0633408565358788
 30.3398189674210244 17.4767804803164069  2.2293348355368954
 30.4804589659930762 32.3994161369745441  2.2293231041342429
 30.4517390267762273 14.0513380914749177  4.9395820346000754
 30.6556827257562041 35.8333539439434929  4.9410427899065690
 31.4819951718103006 18.3952797054538237  5.0633419557963837
 31.5711920508483388 31.4500593439104179  5.0021599926722313
 32.0696546923067061 15.0220957079076243  2.1667301668278451
 32.2804459921090725 34.8031365150707330  2.1667185065674155
 24.9022658206140086 15.7664874979887450  2.2293621125314340
 32.5351223165398693 30.3459577185233904  2.2904892162787336
 26.9989853246393032 37.0489195171899581  4.9395971148025009
 26.7789234650542127 12.8853836295352124  4.9410656770644747
 32.4155855524750436 19.4678950168414246  2.2905012901369992
 26.3661786605143362 15.8382222498752618  5.0633689427933373
 25.1194680032259399 37.2145473857884852  2.1667564419568359
 25.0761130424766385 34.2118913641555125  2.2293621125399858
 25.2575880841727454 21.0729541157780460  4.0067970255751026
 22.9044375496083816 21.6631471451577404  4.0067744481399679
 24.5308517053659330 31.7992947186117014  3.7866654811586002
 23.5182438164633965 28.6285878811618204  1.2339542880316809
 26.5165472121205994 34.0849567198246035  5.0021998024326235
 24.0400324115317368 21.1802579001612905  1.2339538517663509
 25.3718836542105066 19.5382758983149571  0.2104699099852334
 22.0948391190494213 20.3543827011972311  0.2104501236858951
 21.4756233586543068 29.1741228187279766  0.2104540914057047
 26.3192861510021636 30.2891621458242462  2.9833089708916813
 27.0283659577836310 19.9196050852356805  2.9833092107586547
 22.9500129040355354 30.0587737764371852  2.9833092110980344
 23.6590927109717768 19.6892167149383042  2.9833089710755876
 27.8835397427716103 29.6239961596696695  0.2104501235540678
 20.7978925422949921 21.4832390892448402  2.9832781268097808
 28.5027555026332777 20.8042560429075181  0.2104540910420460
 20.3596512711677455 27.8919660073263813  2.9832809547276242
 19.9233385605154822 22.9407963385952094  0.2104411515821286
 19.6868167660532229 26.3096566559904730  0.2104399865312100
 19.5375927945446257 24.6164042430370209  2.9832900839561680
 29.1804863198744044 28.4951397719592450  2.9832781268922419
 29.6187275904368299 22.0864128537076070  2.9832809545398646
 30.0550403020518608 27.0375825226922544  0.2104411519689033
 30.2915620960483487 23.6687222047843413  0.2104399867613612
 24.6064952078258266 30.4401029628853017  0.2104699099975093
 30.4407860682706541 25.3619746178706080  2.9832900843446311
