generated by phonopy
   1.0
    16.0000000000000000    0.0000000000000000    0.0000000000000000
     0.0000000000000000   16.0000000000000000    0.0000000000000000
     0.0000000000000000    0.0000000000000000   42.5999999999999943
C
 200
Direct
  0.6223260986717101  0.5000000000000000  0.0583333333333333
  0.6223260986717101  0.5000000000000000  0.1583333333333334
  0.6223260986717101  0.5000000000000000  0.2583333333333334
  0.6223260986717101  0.5000000000000000  0.3583333333333334
  0.6223260986717101  0.5000000000000000  0.4583333333333333
  0.6223260986717101  0.5000000000000000  0.5583333333333333
  0.6223260986717101  0.5000000000000000  0.6583333333333333
  0.6223260986717101  0.5000000000000000  0.7583333333333333
  0.6223260986717101  0.5000000000000000  0.8583333333333334
  0.6223260986717101  0.5000000000000000  0.9583333333333335
  0.5989638926810001  0.4280985232302950  0.0416666666666667
  0.5989638926810001  0.4280985232302950  0.1416666666666667
  0.5989638926810001  0.4280985232302950  0.2416666666666667
  0.5989638926810001  0.4280985232302950  0.3416666666666667
  0.5989638926810001  0.4280985232302950  0.4416666666666667
  0.5989638926810001  0.4280985232302950  0.5416666666666667
  0.5989638926810001  0.4280985232302950  0.6416666666666667
  0.5989638926810001  0.4280985232302950  0.7416666666666667
  0.5989638926810001  0.4280985232302950  0.8416666666666668
  0.5989638926810001  0.4280985232302950  0.9416666666666669
  0.5378008433451451  0.3836609667453061  0.0583333333333333
  0.5378008433451451  0.3836609667453061  0.1583333333333334
  0.5378008433451451  0.3836609667453061  0.2583333333333334
  0.5378008433451451  0.3836609667453061  0.3583333333333334
  0.5378008433451451  0.3836609667453061  0.4583333333333333
  0.5378008433451451  0.3836609667453061  0.5583333333333333
  0.5378008433451451  0.3836609667453061  0.6583333333333333
  0.5378008433451451  0.3836609667453061  0.7583333333333333
  0.5378008433451451  0.3836609667453061  0.8583333333333334
  0.5378008433451451  0.3836609667453061  0.9583333333333335
  0.5378008433451451  0.3836609667453061  0.0916666666666667
  0.5378008433451451  0.3836609667453061  0.1916666666666667
  0.5378008433451451  0.3836609667453061  0.2916666666666667
  0.5378008433451451  0.3836609667453061  0.3916666666666667
  0.5378008433451451  0.3836609667453061  0.4916666666666666
  0.5378008433451451  0.3836609667453061  0.5916666666666667
  0.5378008433451451  0.3836609667453061  0.6916666666666667
  0.5378008433451451  0.3836609667453061  0.7916666666666666
  0.5378008433451451  0.3836609667453061  0.8916666666666666
  0.5378008433451451  0.3836609667453061  0.9916666666666667
  0.4621991566548549  0.3836609667453061  0.0083333333333333
  0.4621991566548549  0.3836609667453061  0.1083333333333333
  0.4621991566548549  0.3836609667453061  0.2083333333333334
  0.4621991566548549  0.3836609667453061  0.3083333333333333
  0.4621991566548549  0.3836609667453061  0.4083333333333333
  0.4621991566548549  0.3836609667453061  0.5083333333333333
  0.4621991566548549  0.3836609667453061  0.6083333333333334
  0.4621991566548549  0.3836609667453061  0.7083333333333334
  0.4621991566548549  0.3836609667453061  0.8083333333333335
  0.4621991566548549  0.3836609667453061  0.9083333333333334
  0.4621991566548549  0.3836609667453061  0.0416666666666667
  0.4621991566548549  0.3836609667453061  0.1416666666666667
  0.4621991566548549  0.3836609667453061  0.2416666666666667
  0.4621991566548549  0.3836609667453061  0.3416666666666667
  0.4621991566548549  0.3836609667453061  0.4416666666666667
  0.4621991566548549  0.3836609667453061  0.5416666666666667
  0.4621991566548549  0.3836609667453061  0.6416666666666667
  0.4621991566548549  0.3836609667453061  0.7416666666666667
  0.4621991566548549  0.3836609667453061  0.8416666666666668
  0.4621991566548549  0.3836609667453061  0.9416666666666669
  0.4010361073189999  0.4280985232302950  0.0583333333333333
  0.4010361073189999  0.4280985232302950  0.1583333333333334
  0.4010361073189999  0.4280985232302950  0.2583333333333334
  0.4010361073189999  0.4280985232302950  0.3583333333333334
  0.4010361073189999  0.4280985232302950  0.4583333333333333
  0.4010361073189999  0.4280985232302950  0.5583333333333333
  0.4010361073189999  0.4280985232302950  0.6583333333333333
  0.4010361073189999  0.4280985232302950  0.7583333333333333
  0.4010361073189999  0.4280985232302950  0.8583333333333334
  0.4010361073189999  0.4280985232302950  0.9583333333333335
  0.4010361073189999  0.4280985232302950  0.0916666666666667
  0.4010361073189999  0.4280985232302950  0.1916666666666667
  0.4010361073189999  0.4280985232302950  0.2916666666666667
  0.4010361073189999  0.4280985232302950  0.3916666666666667
  0.4010361073189999  0.4280985232302950  0.4916666666666666
  0.4010361073189999  0.4280985232302950  0.5916666666666667
  0.4010361073189999  0.4280985232302950  0.6916666666666667
  0.4010361073189999  0.4280985232302950  0.7916666666666666
  0.4010361073189999  0.4280985232302950  0.8916666666666666
  0.4010361073189999  0.4280985232302950  0.9916666666666667
  0.3776739013282899  0.5000000000000000  0.0083333333333333
  0.3776739013282899  0.5000000000000000  0.1083333333333333
  0.3776739013282899  0.5000000000000000  0.2083333333333334
  0.3776739013282899  0.5000000000000000  0.3083333333333333
  0.3776739013282899  0.5000000000000000  0.4083333333333333
  0.3776739013282899  0.5000000000000000  0.5083333333333333
  0.3776739013282899  0.5000000000000000  0.6083333333333334
  0.3776739013282899  0.5000000000000000  0.7083333333333334
  0.3776739013282899  0.5000000000000000  0.8083333333333335
  0.3776739013282899  0.5000000000000000  0.9083333333333334
  0.3776739013282899  0.5000000000000000  0.0416666666666667
  0.3776739013282899  0.5000000000000000  0.1416666666666667
  0.3776739013282899  0.5000000000000000  0.2416666666666667
  0.3776739013282899  0.5000000000000000  0.3416666666666667
  0.3776739013282899  0.5000000000000000  0.4416666666666667
  0.3776739013282899  0.5000000000000000  0.5416666666666666
  0.3776739013282899  0.5000000000000000  0.6416666666666666
  0.3776739013282899  0.5000000000000000  0.7416666666666667
  0.3776739013282899  0.5000000000000000  0.8416666666666667
  0.3776739013282899  0.5000000000000000  0.9416666666666667
  0.4010361073189999  0.5719014767697050  0.0583333333333333
  0.4010361073189999  0.5719014767697050  0.1583333333333334
  0.4010361073189999  0.5719014767697050  0.2583333333333334
  0.4010361073189999  0.5719014767697050  0.3583333333333334
  0.4010361073189999  0.5719014767697050  0.4583333333333333
  0.4010361073189999  0.5719014767697050  0.5583333333333333
  0.4010361073189999  0.5719014767697050  0.6583333333333333
  0.4010361073189999  0.5719014767697050  0.7583333333333333
  0.4010361073189999  0.5719014767697050  0.8583333333333334
  0.4010361073189999  0.5719014767697050  0.9583333333333335
  0.4010361073189999  0.5719014767697050  0.0916666666666667
  0.4010361073189999  0.5719014767697050  0.1916666666666667
  0.4010361073189999  0.5719014767697050  0.2916666666666667
  0.4010361073189999  0.5719014767697050  0.3916666666666667
  0.4010361073189999  0.5719014767697050  0.4916666666666667
  0.4010361073189999  0.5719014767697050  0.5916666666666667
  0.4010361073189999  0.5719014767697050  0.6916666666666668
  0.4010361073189999  0.5719014767697050  0.7916666666666667
  0.4010361073189999  0.5719014767697050  0.8916666666666666
  0.4010361073189999  0.5719014767697050  0.9916666666666667
  0.4621991566548549  0.6163390332546939  0.0083333333333334
  0.4621991566548549  0.6163390332546939  0.1083333333333334
  0.4621991566548549  0.6163390332546939  0.2083333333333334
  0.4621991566548549  0.6163390332546939  0.3083333333333333
  0.4621991566548549  0.6163390332546939  0.4083333333333334
  0.4621991566548549  0.6163390332546939  0.5083333333333334
  0.4621991566548549  0.6163390332546939  0.6083333333333334
  0.4621991566548549  0.6163390332546939  0.7083333333333335
  0.4621991566548549  0.6163390332546939  0.8083333333333335
  0.4621991566548549  0.6163390332546939  0.9083333333333334
  0.4621991566548549  0.6163390332546939  0.0416666666666667
  0.4621991566548549  0.6163390332546939  0.1416666666666667
  0.4621991566548549  0.6163390332546939  0.2416666666666667
  0.4621991566548549  0.6163390332546939  0.3416666666666667
  0.4621991566548549  0.6163390332546939  0.4416666666666667
  0.4621991566548549  0.6163390332546939  0.5416666666666667
  0.4621991566548549  0.6163390332546939  0.6416666666666667
  0.4621991566548549  0.6163390332546939  0.7416666666666667
  0.4621991566548549  0.6163390332546939  0.8416666666666667
  0.4621991566548549  0.6163390332546939  0.9416666666666667
  0.5378008433451451  0.6163390332546939  0.0583333333333333
  0.5378008433451451  0.6163390332546939  0.1583333333333334
  0.5378008433451451  0.6163390332546939  0.2583333333333334
  0.5378008433451451  0.6163390332546939  0.3583333333333334
  0.5378008433451451  0.6163390332546939  0.4583333333333333
  0.5378008433451451  0.6163390332546939  0.5583333333333333
  0.5378008433451451  0.6163390332546939  0.6583333333333333
  0.5378008433451451  0.6163390332546939  0.7583333333333333
  0.5378008433451451  0.6163390332546939  0.8583333333333334
  0.5378008433451451  0.6163390332546939  0.9583333333333335
  0.5378008433451451  0.6163390332546939  0.0916666666666667
  0.5378008433451451  0.6163390332546939  0.1916666666666667
  0.5378008433451451  0.6163390332546939  0.2916666666666667
  0.5378008433451451  0.6163390332546939  0.3916666666666667
  0.5378008433451451  0.6163390332546939  0.4916666666666667
  0.5378008433451451  0.6163390332546939  0.5916666666666667
  0.5378008433451451  0.6163390332546939  0.6916666666666668
  0.5378008433451451  0.6163390332546939  0.7916666666666667
  0.5378008433451451  0.6163390332546939  0.8916666666666666
  0.5378008433451451  0.6163390332546939  0.9916666666666667
  0.5989638926810001  0.5719014767697050  0.0083333333333333
  0.5989638926810001  0.5719014767697050  0.1083333333333334
  0.5989638926810001  0.5719014767697050  0.2083333333333334
  0.5989638926810001  0.5719014767697050  0.3083333333333333
  0.5989638926810001  0.5719014767697050  0.4083333333333333
  0.5989638926810001  0.5719014767697050  0.5083333333333333
  0.5989638926810001  0.5719014767697050  0.6083333333333334
  0.5989638926810001  0.5719014767697050  0.7083333333333334
  0.5989638926810001  0.5719014767697050  0.8083333333333335
  0.5989638926810001  0.5719014767697050  0.9083333333333334
  0.5989638926810001  0.5719014767697050  0.0416666666666667
  0.5989638926810001  0.5719014767697050  0.1416666666666667
  0.5989638926810001  0.5719014767697050  0.2416666666666667
  0.5989638926810001  0.5719014767697050  0.3416666666666667
  0.5989638926810001  0.5719014767697050  0.4416666666666667
  0.5989638926810001  0.5719014767697050  0.5416666666666667
  0.5989638926810001  0.5719014767697050  0.6416666666666667
  0.5989638926810001  0.5719014767697050  0.7416666666666667
  0.5989638926810001  0.5719014767697050  0.8416666666666667
  0.5989638926810001  0.5719014767697050  0.9416666666666667
  0.5989638926810001  0.4280985232302950  0.0083333333333333
  0.5989638926810001  0.4280985232302950  0.1083333333333333
  0.5989638926810001  0.4280985232302950  0.2083333333333334
  0.5989638926810001  0.4280985232302950  0.3083333333333333
  0.5989638926810001  0.4280985232302950  0.4083333333333333
  0.5989638926810001  0.4280985232302950  0.5083333333333333
  0.5989638926810001  0.4280985232302950  0.6083333333333334
  0.5989638926810001  0.4280985232302950  0.7083333333333334
  0.5989638926810001  0.4280985232302950  0.8083333333333335
  0.5989638926810001  0.4280985232302950  0.9083333333333334
  0.6223260986717101  0.5000000000000000  0.0916666666666667
  0.6223260986717101  0.5000000000000000  0.1916666666666667
  0.6223260986717101  0.5000000000000000  0.2916666666666667
  0.6223260986717101  0.5000000000000000  0.3916666666666667
  0.6223260986717101  0.5000000000000000  0.4916666666666666
  0.6223260986717101  0.5000000000000000  0.5916666666666667
  0.6223260986717101  0.5000000000000000  0.6916666666666667
  0.6223260986717101  0.5000000000000000  0.7916666666666666
  0.6223260986717101  0.5000000000000000  0.8916666666666666
  0.6223260986717101  0.5000000000000000  0.9916666666666667
