C  N 
 1.0000000000000000
     8.1000000000000014    0.0000000000000000    0.0000000000000000
     0.0000000000000000    8.1000000000000014    0.0000000000000000
     0.0000000000000000    0.0000000000000000    3.0000000000000000
 C   N  
  12  12
Direct
  0.4238000000000000  0.7349000000000000  0.6333000000000000
  0.7415000000000000  0.5515000000000000  0.1333000000000000
  0.2585000000000000  0.4485000000000000  0.8667000000000001
  0.2585000000000000  0.5515000000000000  0.3667000000000000
  0.7415000000000000  0.4485000000000000  0.6333000000000000
  0.3347000000000000  0.3166000000000000  0.6333000000000000
  0.3347000000000000  0.6834000000000000  0.1333000000000000
  0.6653000000000000  0.6834000000000000  0.3667000000000000
  0.4238000000000000  0.2651000000000000  0.1333000000000000
  0.6653000000000000  0.3166000000000000  0.8667000000000001
  0.5762000000000000  0.2651000000000000  0.3667000000000000
  0.5762000000000000  0.7349000000000000  0.8667000000000001
  0.7250000000000000  0.7460000000000000  0.3000000000000000
  0.7250000000000000  0.2540000000000000  0.8000000000000002
  0.6005000000000000  0.8178000000000000  0.8000000000000002
  0.1745000000000000  0.4282000000000000  0.8000000000000002
  0.8255000000000000  0.4282000000000000  0.6999999999999998
  0.3995000000000000  0.8178000000000000  0.6999999999999998
  0.3995000000000000  0.1822000000000000  0.2000000000000000
  0.2750000000000000  0.7460000000000000  0.2000000000000000
  0.2750000000000000  0.2540000000000000  0.6999999999999998
  0.1745000000000000  0.5718000000000000  0.3000000000000000
  0.6005000000000000  0.1822000000000000  0.3000000000000000
  0.8255000000000000  0.5718000000000000  0.2000000000000000
