Mo  S                                   
   1.00000000000000     
    51.2990160723407911   -0.0000000009605518    0.0000000000000000
     0.0000000009605518   51.2990160723407982    0.0000000000000000
     0.0000000000000000    0.0000000000000000    3.1290263893557886
   Mo   S 
    24    48
Direct
  0.3672863121556071  0.6580894533738331 -0.0000000000000000
  0.2943630980765740  0.5179378254973359  0.5000000000000000
  0.3129504049016011  0.4127247287246136  0.5000000000000000
  0.4820621745026641  0.2943630980765740  0.5000000000000000
  0.3308929184829717  0.6183524702311555  0.5000000000000000
  0.7056369019234260  0.4820621745026641  0.5000000000000000
  0.7032608727722084  0.5358889842653666  0.0000000000000000
  0.6939774638813637  0.4294570125301824 -0.0000000000000000
  0.3419105466261669  0.3672863121556071 -0.0000000000000000
  0.6870495950983987  0.5872752712753863  0.5000000000000000
  0.6691070815170282  0.3816475297688444  0.5000000000000000
  0.2967391272277914  0.4641110157346335 -0.0000000000000000
  0.6580894533738331  0.6327136878443932  0.0000000000000000
  0.3816475297688444  0.3308929184829717  0.5000000000000000
  0.6327136878443932  0.3419105466261669  0.0000000000000000
  0.3060225361186365  0.5705429874698176 -0.0000000000000000
  0.5705429874698176  0.6939774638813637 -0.0000000000000000
  0.5179378254973359  0.7056369019234260  0.5000000000000000
  0.4127247287246136  0.6870495950983987  0.5000000000000000
  0.5872752712753863  0.3129504049016011  0.5000000000000000
  0.5358889842653666  0.2967391272277914  0.0000000000000000
  0.4294570125301824  0.3060225361186365 -0.0000000000000000
  0.6183524702311555  0.6691070815170282  0.5000000000000000
  0.4641110157346335  0.7032608727722084 -0.0000000000000000
  0.4803235113575599  0.7351138042574100  0.5000000000000000
  0.3198493766730709  0.6523374798474587 -0.0000000000000000
  0.3250783615336021  0.4838111093168098  0.5000000000000000
  0.3268375439698600  0.5296194494429670 -0.0000000000000000
  0.4703805505570331  0.3268375439698600 -0.0000000000000000
  0.3352277881579323  0.4390835714397005 -0.0000000000000000
  0.3404129150007080  0.5734374414868267  0.5000000000000000
  0.3994872542859892  0.2865629871987276  0.5000000000000000
  0.4390835714397005  0.6647722118420678  0.0000000000000000
  0.3476625201525415  0.3198493766730709  0.0000000000000000
  0.3566081486539748  0.3985078540736310  0.5000000000000000
  0.3648605102647302  0.6122388822279475 -0.0000000000000000
  0.3654133412436789  0.6937760515981697  0.5000000000000000
  0.4265625585131729  0.3404129150007080  0.5000000000000000
  0.4201559436805254  0.7220047571625754  0.0000000000000000
  0.3877611177720526  0.3648605102647302  0.0000000000000000
  0.3985078540736310  0.6433918513460252  0.5000000000000000
  0.4581511120411272  0.2678021579820238  0.0000000000000000
  0.5161888906831901  0.3250783615336021  0.5000000000000000
  0.7351138042574100  0.5196764886424401  0.5000000000000000
  0.2865629871987276  0.6005127457140110  0.5000000000000000
  0.5196764886424401  0.2648861957425899  0.5000000000000000
  0.5296194494429670  0.6731624560301396  0.0000000000000000
  0.5418488879588728  0.7321978420179762 -0.0000000000000000
  0.5609164285602996  0.3352277881579323  0.0000000000000000
  0.5734374414868267  0.6595870849992921  0.5000000000000000
  0.5798440563194747  0.2779952428374246  0.0000000000000000
  0.6005127457140110  0.7134370128012725  0.5000000000000000
  0.6014921459263691  0.3566081486539748  0.5000000000000000
  0.6122388822279475  0.6351394897352697 -0.0000000000000000
  0.6345866587563282  0.3062239484018303  0.5000000000000000
  0.6351394897352697  0.3877611177720526  0.0000000000000000
  0.6433918513460252  0.6014921459263691  0.5000000000000000
  0.6523374798474587  0.6801506233269289  0.0000000000000000
  0.6595870849992921  0.4265625585131729  0.5000000000000000
  0.6647722118420678  0.5609164285602996 -0.0000000000000000
  0.6731624560301396  0.4703805505570331  0.0000000000000000
  0.6749216384663979  0.5161888906831901  0.5000000000000000
  0.6801506233269289  0.3476625201525415  0.0000000000000000
  0.6937760515981697  0.6345866587563282  0.5000000000000000
  0.7134370128012725  0.3994872542859892  0.5000000000000000
  0.7220047571625754  0.5798440563194747 -0.0000000000000000
  0.7321978420179762  0.4581511120411272 -0.0000000000000000
  0.2648861957425899  0.4803235113575599  0.5000000000000000
  0.2678021579820238  0.5418488879588728 -0.0000000000000000
  0.2779952428374246  0.4201559436805254  0.0000000000000000
  0.3062239484018303  0.3654133412436789  0.5000000000000000
  0.4838111093168098  0.6749216384663979  0.5000000000000000
 
  0.00000000E+00  0.00000000E+00  0.00000000E+00
  0.00000000E+00  0.00000000E+00  0.00000000E+00
  0.00000000E+00  0.00000000E+00  0.00000000E+00
  0.00000000E+00  0.00000000E+00  0.00000000E+00
  0.00000000E+00  0.00000000E+00  0.00000000E+00
  0.00000000E+00  0.00000000E+00  0.00000000E+00
  0.00000000E+00  0.00000000E+00  0.00000000E+00
  0.00000000E+00  0.00000000E+00  0.00000000E+00
  0.00000000E+00  0.00000000E+00  0.00000000E+00
  0.00000000E+00  0.00000000E+00  0.00000000E+00
  0.00000000E+00  0.00000000E+00  0.00000000E+00
  0.00000000E+00  0.00000000E+00  0.00000000E+00
  0.00000000E+00  0.00000000E+00  0.00000000E+00
  0.00000000E+00  0.00000000E+00  0.00000000E+00
  0.00000000E+00  0.00000000E+00  0.00000000E+00
  0.00000000E+00  0.00000000E+00  0.00000000E+00
  0.00000000E+00  0.00000000E+00  0.00000000E+00
  0.00000000E+00  0.00000000E+00  0.00000000E+00
  0.00000000E+00  0.00000000E+00  0.00000000E+00
  0.00000000E+00  0.00000000E+00  0.00000000E+00
  0.00000000E+00  0.00000000E+00  0.00000000E+00
  0.00000000E+00  0.00000000E+00  0.00000000E+00
  0.00000000E+00  0.00000000E+00  0.00000000E+00
  0.00000000E+00  0.00000000E+00  0.00000000E+00
  0.00000000E+00  0.00000000E+00  0.00000000E+00
  0.00000000E+00  0.00000000E+00  0.00000000E+00
  0.00000000E+00  0.00000000E+00  0.00000000E+00
  0.00000000E+00  0.00000000E+00  0.00000000E+00
  0.00000000E+00  0.00000000E+00  0.00000000E+00
  0.00000000E+00  0.00000000E+00  0.00000000E+00
  0.00000000E+00  0.00000000E+00  0.00000000E+00
  0.00000000E+00  0.00000000E+00  0.00000000E+00
  0.00000000E+00  0.00000000E+00  0.00000000E+00
  0.00000000E+00  0.00000000E+00  0.00000000E+00
  0.00000000E+00  0.00000000E+00  0.00000000E+00
  0.00000000E+00  0.00000000E+00  0.00000000E+00
  0.00000000E+00  0.00000000E+00  0.00000000E+00
  0.00000000E+00  0.00000000E+00  0.00000000E+00
  0.00000000E+00  0.00000000E+00  0.00000000E+00
  0.00000000E+00  0.00000000E+00  0.00000000E+00
  0.00000000E+00  0.00000000E+00  0.00000000E+00
  0.00000000E+00  0.00000000E+00  0.00000000E+00
  0.00000000E+00  0.00000000E+00  0.00000000E+00
  0.00000000E+00  0.00000000E+00  0.00000000E+00
  0.00000000E+00  0.00000000E+00  0.00000000E+00
  0.00000000E+00  0.00000000E+00  0.00000000E+00
  0.00000000E+00  0.00000000E+00  0.00000000E+00
  0.00000000E+00  0.00000000E+00  0.00000000E+00
  0.00000000E+00  0.00000000E+00  0.00000000E+00
  0.00000000E+00  0.00000000E+00  0.00000000E+00
  0.00000000E+00  0.00000000E+00  0.00000000E+00
  0.00000000E+00  0.00000000E+00  0.00000000E+00
  0.00000000E+00  0.00000000E+00  0.00000000E+00
  0.00000000E+00  0.00000000E+00  0.00000000E+00
  0.00000000E+00  0.00000000E+00  0.00000000E+00
  0.00000000E+00  0.00000000E+00  0.00000000E+00
  0.00000000E+00  0.00000000E+00  0.00000000E+00
  0.00000000E+00  0.00000000E+00  0.00000000E+00
  0.00000000E+00  0.00000000E+00  0.00000000E+00
  0.00000000E+00  0.00000000E+00  0.00000000E+00
  0.00000000E+00  0.00000000E+00  0.00000000E+00
  0.00000000E+00  0.00000000E+00  0.00000000E+00
  0.00000000E+00  0.00000000E+00  0.00000000E+00
  0.00000000E+00  0.00000000E+00  0.00000000E+00
  0.00000000E+00  0.00000000E+00  0.00000000E+00
  0.00000000E+00  0.00000000E+00  0.00000000E+00
  0.00000000E+00  0.00000000E+00  0.00000000E+00
  0.00000000E+00  0.00000000E+00  0.00000000E+00
  0.00000000E+00  0.00000000E+00  0.00000000E+00
  0.00000000E+00  0.00000000E+00  0.00000000E+00
  0.00000000E+00  0.00000000E+00  0.00000000E+00
  0.00000000E+00  0.00000000E+00  0.00000000E+00
