C 
 1.0000000000000000
    21.9999999999999964    0.0000000000000000    0.0000000000000000
     0.0000000000000000   21.9999999999999964    0.0000000000000000
     0.0000000000000000    0.0000000000000000    4.2599999999999989
 C  
  16
Selective dynamics
Cartesian
 12.6773160019035913 10.9999999999999982  0.0115096168749460   T   T   T
 12.1860414961918870 12.1860414961918870  3.5384903290615037   T   T   T
 12.1860414961918870 12.1860414961918870  2.1415096709384942   T   T   T
 10.9999999999999982 12.6773160019035913  1.4084903831250530   T   T   T
 10.9999999999999982 12.6773160019035913  0.0115096168749460   T   T   T
  9.8139585038081094 12.1860414961918870  3.5384903290615037   T   T   T
  9.8139585038081094 12.1860414961918870  2.1415096709384942   T   T   T
  9.3226839980964051 10.9999999999999982  1.4084903831250530   T   T   T
  9.3226839980964051 10.9999999999999982  0.0115096168749460   T   T   T
  9.8139585038081094  9.8139585038081094  3.5384903290615037   T   T   T
  9.8139585038081094  9.8139585038081094  2.1415096709384942   T   T   T
 10.9999999999999982  9.3226839980964051  1.4084903831250530   T   T   T
 10.9999999999999982  9.3226839980964051  0.0115096168749460   T   T   T
 12.1860414961918870  9.8139585038081094  3.5384903290615037   T   T   T
 12.1860414961918870  9.8139585038081094  2.1415096709384942   T   T   T
 12.6773160019035913 10.9999999999999982  1.4084903831250530   T   T   T
